p cnf 140 278
e 1 2 3 4 5 6 7 8 9 10 11 12 13 14 15 16 17 18 19 20 21 22 23 24 25 26 27 28 29 30 31 32 33 34 35 36 37 38 39 40 41 42 43 44 45 46 47 48 49 50 51 52 53 54 55 56 57 58 59 60 61 62 63 64 65 66 67 68 69 70 0
a 71 0
e 72 73 74 75 76 77 78 79 80 81 82 83 84 85 86 87 88 89 90 91 92 93 94 95 96 97 98 99 100 101 102 103 104 105 106 107 108 109 110 111 112 113 114 115 116 117 118 119 120 121 122 123 124 125 126 127 128 129 130 131 132 133 134 135 136 137 138 139 140 0
-1 -2 -72 0
-1 2 72 0
1 -2 72 0
1 2 -72 0
-72 -3 -73 0
-72 3 73 0
72 -3 73 0
72 3 -73 0
-73 -4 -74 0
-73 4 74 0
73 -4 74 0
73 4 -74 0
-74 -5 -75 0
-74 5 75 0
74 -5 75 0
74 5 -75 0
-75 -6 -76 0
-75 6 76 0
75 -6 76 0
75 6 -76 0
-76 -7 -77 0
-76 7 77 0
76 -7 77 0
76 7 -77 0
-77 -8 -78 0
-77 8 78 0
77 -8 78 0
77 8 -78 0
-78 -9 -79 0
-78 9 79 0
78 -9 79 0
78 9 -79 0
-79 -10 -80 0
-79 10 80 0
79 -10 80 0
79 10 -80 0
-80 -11 -81 0
-80 11 81 0
80 -11 81 0
80 11 -81 0
-81 -12 -82 0
-81 12 82 0
81 -12 82 0
81 12 -82 0
-82 -13 -83 0
-82 13 83 0
82 -13 83 0
82 13 -83 0
-83 -14 -84 0
-83 14 84 0
83 -14 84 0
83 14 -84 0
-84 -15 -85 0
-84 15 85 0
84 -15 85 0
84 15 -85 0
-85 -16 -86 0
-85 16 86 0
85 -16 86 0
85 16 -86 0
-86 -17 -87 0
-86 17 87 0
86 -17 87 0
86 17 -87 0
-87 -18 -88 0
-87 18 88 0
87 -18 88 0
87 18 -88 0
-88 -19 -89 0
-88 19 89 0
88 -19 89 0
88 19 -89 0
-89 -20 -90 0
-89 20 90 0
89 -20 90 0
89 20 -90 0
-90 -21 -91 0
-90 21 91 0
90 -21 91 0
90 21 -91 0
-91 -22 -92 0
-91 22 92 0
91 -22 92 0
91 22 -92 0
-92 -23 -93 0
-92 23 93 0
92 -23 93 0
92 23 -93 0
-93 -24 -94 0
-93 24 94 0
93 -24 94 0
93 24 -94 0
-94 -25 -95 0
-94 25 95 0
94 -25 95 0
94 25 -95 0
-95 -26 -96 0
-95 26 96 0
95 -26 96 0
95 26 -96 0
-96 -27 -97 0
-96 27 97 0
96 -27 97 0
96 27 -97 0
-97 -28 -98 0
-97 28 98 0
97 -28 98 0
97 28 -98 0
-98 -29 -99 0
-98 29 99 0
98 -29 99 0
98 29 -99 0
-99 -30 -100 0
-99 30 100 0
99 -30 100 0
99 30 -100 0
-100 -31 -101 0
-100 31 101 0
100 -31 101 0
100 31 -101 0
-101 -32 -102 0
-101 32 102 0
101 -32 102 0
101 32 -102 0
-102 -33 -103 0
-102 33 103 0
102 -33 103 0
102 33 -103 0
-103 -34 -104 0
-103 34 104 0
103 -34 104 0
103 34 -104 0
-104 -35 -105 0
-104 35 105 0
104 -35 105 0
104 35 -105 0
-105 -36 -106 0
-105 36 106 0
105 -36 106 0
105 36 -106 0
-106 -37 -107 0
-106 37 107 0
106 -37 107 0
106 37 -107 0
-107 -38 -108 0
-107 38 108 0
107 -38 108 0
107 38 -108 0
-108 -39 -109 0
-108 39 109 0
108 -39 109 0
108 39 -109 0
-109 -40 -110 0
-109 40 110 0
109 -40 110 0
109 40 -110 0
-110 -41 -111 0
-110 41 111 0
110 -41 111 0
110 41 -111 0
-111 -42 -112 0
-111 42 112 0
111 -42 112 0
111 42 -112 0
-112 -43 -113 0
-112 43 113 0
112 -43 113 0
112 43 -113 0
-113 -44 -114 0
-113 44 114 0
113 -44 114 0
113 44 -114 0
-114 -45 -115 0
-114 45 115 0
114 -45 115 0
114 45 -115 0
-115 -46 -116 0
-115 46 116 0
115 -46 116 0
115 46 -116 0
-116 -47 -117 0
-116 47 117 0
116 -47 117 0
116 47 -117 0
-117 -48 -118 0
-117 48 118 0
117 -48 118 0
117 48 -118 0
-118 -49 -119 0
-118 49 119 0
118 -49 119 0
118 49 -119 0
-119 -50 -120 0
-119 50 120 0
119 -50 120 0
119 50 -120 0
-120 -51 -121 0
-120 51 121 0
120 -51 121 0
120 51 -121 0
-121 -52 -122 0
-121 52 122 0
121 -52 122 0
121 52 -122 0
-122 -53 -123 0
-122 53 123 0
122 -53 123 0
122 53 -123 0
-123 -54 -124 0
-123 54 124 0
123 -54 124 0
123 54 -124 0
-124 -55 -125 0
-124 55 125 0
124 -55 125 0
124 55 -125 0
-125 -56 -126 0
-125 56 126 0
125 -56 126 0
125 56 -126 0
-126 -57 -127 0
-126 57 127 0
126 -57 127 0
126 57 -127 0
-127 -58 -128 0
-127 58 128 0
127 -58 128 0
127 58 -128 0
-128 -59 -129 0
-128 59 129 0
128 -59 129 0
128 59 -129 0
-129 -60 -130 0
-129 60 130 0
129 -60 130 0
129 60 -130 0
-130 -61 -131 0
-130 61 131 0
130 -61 131 0
130 61 -131 0
-131 -62 -132 0
-131 62 132 0
131 -62 132 0
131 62 -132 0
-132 -63 -133 0
-132 63 133 0
132 -63 133 0
132 63 -133 0
-133 -64 -134 0
-133 64 134 0
133 -64 134 0
133 64 -134 0
-134 -65 -135 0
-134 65 135 0
134 -65 135 0
134 65 -135 0
-135 -66 -136 0
-135 66 136 0
135 -66 136 0
135 66 -136 0
-136 -67 -137 0
-136 67 137 0
136 -67 137 0
136 67 -137 0
-137 -68 -138 0
-137 68 138 0
137 -68 138 0
137 68 -138 0
-138 -69 -139 0
-138 69 139 0
138 -69 139 0
138 69 -139 0
-139 -70 -140 0
-139 70 140 0
139 -70 140 0
139 70 -140 0
71 140 0
-71 -140 0
